\ Model iteration_30
\ LP format - for model browsing. Use MPS format to capture full model detail.
Minimize
  c(ee1ea6ff-4de4-486e-8d7a-67a0579594ec,39b6d253-aa2e-4247-82f8-e157083778e9)_rl
   + c(ee1ea6ff-4de4-486e-8d7a-67a0579594ec,39b6d253-aa2e-4247-82f8-e157083778e9)_ru
   + c(97980b23-712c-4f01-96a3-683282cec3ed,39b6d253-aa2e-4247-82f8-e157083778e9)_rl
   + c(97980b23-712c-4f01-96a3-683282cec3ed,39b6d253-aa2e-4247-82f8-e157083778e9)_ru
   + c(d06531c2-d62a-4903-9183-987ce10a6c75,464ed566-2c66-4441-9179-1e8d032e0196)_rl
   + c(d06531c2-d62a-4903-9183-987ce10a6c75,464ed566-2c66-4441-9179-1e8d032e0196)_ru
   + c(f0215795-2e7b-478a-a323-abbf4238b9c1,39b6d253-aa2e-4247-82f8-e157083778e9)_rl
   + c(f0215795-2e7b-478a-a323-abbf4238b9c1,39b6d253-aa2e-4247-82f8-e157083778e9)_ru
   + c(e52ed47f-1822-468f-beb6-92e705c5b80f,592b8786-bda0-4a50-9cc5-ad0e58eb0d44)_rl
   + c(e52ed47f-1822-468f-beb6-92e705c5b80f,592b8786-bda0-4a50-9cc5-ad0e58eb0d44)_ru
   + c(66c73dfd-3bf2-4b0b-a504-d9f14b71f6af,8ecfb978-edd4-4825-b7da-fd8bc8836c8d)_rl
   + c(66c73dfd-3bf2-4b0b-a504-d9f14b71f6af,8ecfb978-edd4-4825-b7da-fd8bc8836c8d)_ru
   + c(b7d8d9d7-ab72-4c9e-88a5-c677918d75b1,39b6d253-aa2e-4247-82f8-e157083778e9)_rl
   + c(b7d8d9d7-ab72-4c9e-88a5-c677918d75b1,39b6d253-aa2e-4247-82f8-e157083778e9)_ru
   + c(9b671984-58a9-4850-b4a8-9adc4e6ee3eb,48bbd4ec-cccb-4c88-9f2a-61685fd0d208)_rl
   + c(9b671984-58a9-4850-b4a8-9adc4e6ee3eb,48bbd4ec-cccb-4c88-9f2a-61685fd0d208)_ru
   + c(6f60b030-39db-44b0-90c2-614ad4d0ca05,bef00eed-7111-4da2-a9f8-4297beb40ff7)_rl
   + c(6f60b030-39db-44b0-90c2-614ad4d0ca05,bef00eed-7111-4da2-a9f8-4297beb40ff7)_ru
   + c(b0f99918-c01b-4fca-b7db-73d585107fdc,39b6d253-aa2e-4247-82f8-e157083778e9)_rl
   + c(b0f99918-c01b-4fca-b7db-73d585107fdc,39b6d253-aa2e-4247-82f8-e157083778e9)_ru
   + c(b88699eb-2b7d-49d5-ab6b-38eced322e51,39b6d253-aa2e-4247-82f8-e157083778e9)_rl
   + c(b88699eb-2b7d-49d5-ab6b-38eced322e51,39b6d253-aa2e-4247-82f8-e157083778e9)_ru
   + c(39b6d253-aa2e-4247-82f8-e157083778e9,e1c1e4f0-89a7-4319-8573-6b0b50663062)_rl
   + c(39b6d253-aa2e-4247-82f8-e157083778e9,e1c1e4f0-89a7-4319-8573-6b0b50663062)_ru
   + c(f335e87e-d158-4c98-99db-a19c682b4475,830c4736-bd2b-4005-98f5-d47cfa5fa749)_rl
   + c(f335e87e-d158-4c98-99db-a19c682b4475,830c4736-bd2b-4005-98f5-d47cfa5fa749)_ru
   + c(4503378f-059a-457e-bb93-3b27b02b6624,b0f99918-c01b-4fca-b7db-73d585107fdc)_rl
   + c(4503378f-059a-457e-bb93-3b27b02b6624,b0f99918-c01b-4fca-b7db-73d585107fdc)_ru
   + c(9269351c-682f-45ec-90f8-148862e9dd82,4d9c7c74-ee92-44c6-86d0-84107827541f)_rl
   + c(9269351c-682f-45ec-90f8-148862e9dd82,4d9c7c74-ee92-44c6-86d0-84107827541f)_ru
   + c(1a3a36c7-a000-4e50-87ed-8a21ded3e5f0,435450e8-1d68-44f3-9ed0-bce054a18ab2)_rl
   + c(1a3a36c7-a000-4e50-87ed-8a21ded3e5f0,435450e8-1d68-44f3-9ed0-bce054a18ab2)_ru
   + c(b9e325bf-f0e5-43f6-80f7-cff0ff21ae9b,39b6d253-aa2e-4247-82f8-e157083778e9)_rl
   + c(b9e325bf-f0e5-43f6-80f7-cff0ff21ae9b,39b6d253-aa2e-4247-82f8-e157083778e9)_ru
Subject To
 cont[0]: - 7 + 15
   - c(b0f99918-c01b-4fca-b7db-73d585107fdc,39b6d253-aa2e-4247-82f8-e157083778e9)_ru
   <= 291
 cont[1]: 7 - 15
   - c(b0f99918-c01b-4fca-b7db-73d585107fdc,39b6d253-aa2e-4247-82f8-e157083778e9)_rl
   <= 0
 cont[2]: 4 - 15
   - c(39b6d253-aa2e-4247-82f8-e157083778e9,e1c1e4f0-89a7-4319-8573-6b0b50663062)_ru
   <= 10000
 cont[3]: - 4 + 15
   - c(39b6d253-aa2e-4247-82f8-e157083778e9,e1c1e4f0-89a7-4319-8573-6b0b50663062)_rl
   <= 0
 cont[4]: - 0 + 7
   - c(4503378f-059a-457e-bb93-3b27b02b6624,b0f99918-c01b-4fca-b7db-73d585107fdc)_ru
   <= 10000
 cont[5]: 0 - 7
   - c(4503378f-059a-457e-bb93-3b27b02b6624,b0f99918-c01b-4fca-b7db-73d585107fdc)_rl
   <= 0
 z0: - 0.1472321726050373 6 + 0.1472321726050373 15
   - 0.1472321726050373 c(ee1ea6ff-4de4-486e-8d7a-67a0579594ec,39b6d253-aa2e-4247-82f8-e157083778e9)_ru
   + 3 lambda[0] + 3 lambda[2] + 3 lambda[3] + 3 lambda[4] + 3 lambda[5]
   + 3 lambda[6] + 3 lambda[7] + 3 lambda[8] + 3 lambda[9] + 3 lambda[10]
   + 3 lambda[11] + 3 lambda[12] + 3 lambda[13] + 3 lambda[14]
   + 3 lambda[15] + 3 lambda[16] + 3 lambda[17] + 3 lambda[18]
   + 3 lambda[19] + 3 lambda[20] + 3 lambda[21] + 3 lambda[22]
   + 3 lambda[23] + 3 lambda[24] + 3 lambda[25] + 3 lambda[26]
   + 3 lambda[27] + 3 lambda[28] + 3.24725038402646 lambda[29]
   <= 61.81257358903584
 z1: 0.1472321726050373 6 - 0.1472321726050373 15
   - 0.1472321726050373 c(ee1ea6ff-4de4-486e-8d7a-67a0579594ec,39b6d253-aa2e-4247-82f8-e157083778e9)_rl
   + 3 lambda[0] + 3 lambda[1] + 3 lambda[3] + 3 lambda[4] + 3 lambda[5]
   + 3 lambda[6] + 3 lambda[7] + 3 lambda[8] + 3 lambda[9] + 3 lambda[10]
   + 3 lambda[11] + 3 lambda[12] + 3 lambda[13] + 3 lambda[14]
   + 3 lambda[15] + 3 lambda[16] + 3 lambda[17] + 3 lambda[18]
   + 3 lambda[19] + 3 lambda[20] + 3 lambda[21] + 3 lambda[22]
   + 3 lambda[23] + 3 lambda[24] + 3 lambda[25] + 3 lambda[26]
   + 3 lambda[27] + 3 lambda[28] + 1.261627500302395 lambda[29]
   <= -61.12794398642242
 z2: 0.1580376899917604 15 - 0.1580376899917604 16
   - 0.1580376899917604 c(97980b23-712c-4f01-96a3-683282cec3ed,39b6d253-aa2e-4247-82f8-e157083778e9)_ru
   + 3 lambda[0] + 3 lambda[1] + 3 lambda[2] + 3 lambda[4] + 3 lambda[5]
   + 3 lambda[6] + 3 lambda[7] + 3 lambda[8] + 3 lambda[9] + 3 lambda[10]
   + 3 lambda[11] + 3 lambda[12] + 3 lambda[13] + 3 lambda[14]
   + 3 lambda[15] + 3 lambda[16] + 3 lambda[17] + 3 lambda[18]
   + 3 lambda[19] + 3 lambda[20] + 3 lambda[21] + 3 lambda[22]
   + 3 lambda[23] + 3 lambda[24] + 3 lambda[25] + 3 lambda[26]
   + 3 lambda[27] + 3 lambda[28] + 3 lambda[29] <= 57.71176263597205
 z3: - 0.1580376899917604 15 + 0.1580376899917604 16
   - 0.1580376899917604 c(97980b23-712c-4f01-96a3-683282cec3ed,39b6d253-aa2e-4247-82f8-e157083778e9)_rl
   + 3 lambda[0] + 3 lambda[1] + 3 lambda[2] + 3 lambda[3] + 3 lambda[5]
   + 3 lambda[6] + 3 lambda[7] + 3 lambda[8] + 3 lambda[9] + 3 lambda[10]
   + 3 lambda[11] + 3 lambda[12] + 3 lambda[13] + 3 lambda[14]
   + 3 lambda[15] + 3 lambda[16] + 3 lambda[17] + 3 lambda[18]
   + 3 lambda[19] + 3 lambda[20] + 3 lambda[21] + 3 lambda[22]
   + 3 lambda[23] + 3 lambda[24] + 3 lambda[25] + 3 lambda[26]
   + 3 lambda[27] + 3 lambda[28] + 1.330680727981435 lambda[29]
   <= -56.94844059331185
 z4: 0.1275527840017316 1 - 0.1275527840017316 9
   - 0.1275527840017316 c(d06531c2-d62a-4903-9183-987ce10a6c75,464ed566-2c66-4441-9179-1e8d032e0196)_ru
   + 3 lambda[0] + 3 lambda[1] + 3 lambda[2] + 3 lambda[3] + 3 lambda[4]
   + 3 lambda[6] + 3 lambda[7] + 3 lambda[8] + 3 lambda[9] + 3 lambda[10]
   + 3 lambda[11] + 3 lambda[12] + 3 lambda[13] + 3 lambda[14]
   + 3 lambda[15] + 3 lambda[16] + 3 lambda[17] + 3 lambda[18]
   + 3 lambda[19] + 3 lambda[20] + 3 lambda[21] + 3 lambda[22]
   + 3 lambda[23] + 3 lambda[24] + 3 lambda[25] + 3 lambda[26]
   + 3 lambda[27] + 3 lambda[28] + 3.24725842504026 lambda[29]
   <= 76.66882317258593
 z5: - 0.1275527840017316 1 + 0.1275527840017316 9
   - 0.1275527840017316 c(d06531c2-d62a-4903-9183-987ce10a6c75,464ed566-2c66-4441-9179-1e8d032e0196)_rl
   + 3 lambda[0] + 3 lambda[1] + 3 lambda[2] + 3 lambda[3] + 3 lambda[4]
   + 3 lambda[5] + 3 lambda[7] + 3 lambda[8] + 3 lambda[9] + 3 lambda[10]
   + 3 lambda[11] + 3 lambda[12] + 3 lambda[13] + 3 lambda[14]
   + 3 lambda[15] + 3 lambda[16] + 3 lambda[17] + 3 lambda[18]
   + 3 lambda[19] + 3 lambda[20] + 3 lambda[21] + 3 lambda[22]
   + 3 lambda[23] + 3 lambda[24] + 3 lambda[25] + 3 lambda[26]
   + 3 lambda[27] + 3 lambda[28] + 1.144150844942683 lambda[29]
   <= -76.25298068829484
 z6: 0.1466065226918405 15 - 0.1466065226918405 24
   - 0.1466065226918405 c(f0215795-2e7b-478a-a323-abbf4238b9c1,39b6d253-aa2e-4247-82f8-e157083778e9)_ru
   + 3 lambda[0] + 3 lambda[1] + 3 lambda[2] + 3 lambda[3] + 3 lambda[4]
   + 3 lambda[5] + 3 lambda[6] + 3 lambda[8] + 3 lambda[9] + 3 lambda[10]
   + 3 lambda[11] + 3 lambda[12] + 3 lambda[13] + 3 lambda[14]
   + 3 lambda[15] + 3 lambda[16] + 3 lambda[17] + 3 lambda[18]
   + 3 lambda[19] + 3 lambda[20] + 3 lambda[21] + 3 lambda[22]
   + 3 lambda[23] + 3 lambda[24] + 3 lambda[25] + 3 lambda[26]
   + 3 lambda[27] + 3 lambda[28] + 1.257477834898775 lambda[29]
   <= 62.06759842999785
 z7: - 0.1466065226918405 15 + 0.1466065226918405 24
   - 0.1466065226918405 c(f0215795-2e7b-478a-a323-abbf4238b9c1,39b6d253-aa2e-4247-82f8-e157083778e9)_rl
   + 3 lambda[0] + 3 lambda[1] + 3 lambda[2] + 3 lambda[3] + 3 lambda[4]
   + 3 lambda[5] + 3 lambda[6] + 3 lambda[7] + 3 lambda[9] + 3 lambda[10]
   + 3 lambda[11] + 3 lambda[12] + 3 lambda[13] + 3 lambda[14]
   + 3 lambda[15] + 3 lambda[16] + 3 lambda[17] + 3 lambda[18]
   + 3 lambda[19] + 3 lambda[20] + 3 lambda[21] + 3 lambda[22]
   + 3 lambda[23] + 3 lambda[24] + 3 lambda[25] + 3 lambda[26]
   + 3 lambda[27] + 3 lambda[28] + 3.247250481365834 lambda[29]
   <= -61.38881022993463
 z8: - 0.238053505090578 5 + 0.238053505090578 9
   - 0.238053505090578 c(e52ed47f-1822-468f-beb6-92e705c5b80f,592b8786-bda0-4a50-9cc5-ad0e58eb0d44)_ru
   + 3 lambda[0] + 3 lambda[1] + 3 lambda[2] + 3 lambda[3] + 3 lambda[4]
   + 3 lambda[5] + 3 lambda[6] + 3 lambda[7] + 3 lambda[8] + 3 lambda[10]
   + 3 lambda[11] + 3 lambda[12] + 3 lambda[13] + 3 lambda[14]
   + 3 lambda[15] + 3 lambda[16] + 3 lambda[17] + 3 lambda[18]
   + 3 lambda[19] + 3 lambda[20] + 3 lambda[21] + 3 lambda[22]
   + 3 lambda[23] + 3 lambda[24] + 3 lambda[25] + 3 lambda[26]
   + 3 lambda[27] + 3 lambda[28] + 3 lambda[29] <= 39.19923969811736
 z9: 0.238053505090578 5 - 0.238053505090578 9
   - 0.238053505090578 c(e52ed47f-1822-468f-beb6-92e705c5b80f,592b8786-bda0-4a50-9cc5-ad0e58eb0d44)_rl
   + 3 lambda[0] + 3 lambda[1] + 3 lambda[2] + 3 lambda[3] + 3 lambda[4]
   + 3 lambda[5] + 3 lambda[6] + 3 lambda[7] + 3 lambda[8] + 3 lambda[9]
   + 3 lambda[11] + 3 lambda[12] + 3 lambda[13] + 3 lambda[14]
   + 3 lambda[15] + 3 lambda[16] + 3 lambda[17] + 3 lambda[18]
   + 3 lambda[19] + 3 lambda[20] + 3 lambda[21] + 3 lambda[22]
   + 3 lambda[23] + 3 lambda[24] + 3 lambda[25] + 3 lambda[26]
   + 3 lambda[27] + 3 lambda[28] + 1.521838615823347 lambda[29]
   <= -37.80662669333748
 z10: 0.1281938475755886 6 - 0.1281938475755886 9
   - 0.1281938475755886 c(66c73dfd-3bf2-4b0b-a504-d9f14b71f6af,8ecfb978-edd4-4825-b7da-fd8bc8836c8d)_ru
   + 3 lambda[0] + 3 lambda[1] + 3 lambda[2] + 3 lambda[3] + 3 lambda[4]
   + 3 lambda[5] + 3 lambda[6] + 3 lambda[7] + 3 lambda[8] + 3 lambda[9]
   + 3 lambda[10] + 3 lambda[12] + 3 lambda[13] + 3 lambda[14]
   + 3 lambda[15] + 3 lambda[16] + 3 lambda[17] + 3 lambda[18]
   + 3 lambda[19] + 3 lambda[20] + 3 lambda[21] + 3 lambda[22]
   + 3 lambda[23] + 3 lambda[24] + 3 lambda[25] + 3 lambda[26]
   + 3 lambda[27] + 3 lambda[28] + 3 lambda[29] <= 81.25706646225707
 z11: - 0.1281938475755886 6 + 0.1281938475755886 9
   - 0.1281938475755886 c(66c73dfd-3bf2-4b0b-a504-d9f14b71f6af,8ecfb978-edd4-4825-b7da-fd8bc8836c8d)_rl
   + 3 lambda[0] + 3 lambda[1] + 3 lambda[2] + 3 lambda[3] + 3 lambda[4]
   + 3 lambda[5] + 3 lambda[6] + 3 lambda[7] + 3 lambda[8] + 3 lambda[9]
   + 3 lambda[10] + 3 lambda[11] + 3 lambda[13] + 3 lambda[14]
   + 3 lambda[15] + 3 lambda[16] + 3 lambda[17] + 3 lambda[18]
   + 3 lambda[19] + 3 lambda[20] + 3 lambda[21] + 3 lambda[22]
   + 3 lambda[23] + 3 lambda[24] + 3 lambda[25] + 3 lambda[26]
   + 3 lambda[27] + 3 lambda[28] + 1.161725390031906 lambda[29]
   <= -80.42835477072775
 z12: - 0.1490406829504854 1 + 0.1490406829504854 15
   - 0.1490406829504854 c(b7d8d9d7-ab72-4c9e-88a5-c677918d75b1,39b6d253-aa2e-4247-82f8-e157083778e9)_ru
   + 3 lambda[0] + 3 lambda[1] + 3 lambda[2] + 3 lambda[3] + 3 lambda[4]
   + 3 lambda[5] + 3 lambda[6] + 3 lambda[7] + 3 lambda[8] + 3 lambda[9]
   + 3 lambda[10] + 3 lambda[11] + 3 lambda[12] + 3 lambda[14]
   + 3 lambda[15] + 3 lambda[16] + 3 lambda[17] + 3 lambda[18]
   + 3 lambda[19] + 3 lambda[20] + 3 lambda[21] + 3 lambda[22]
   + 3 lambda[23] + 3 lambda[24] + 3 lambda[25] + 3 lambda[26]
   + 3 lambda[27] + 3 lambda[28] + 3 lambda[29] <= 61.60683991382633
 z13: 0.1490406829504854 1 - 0.1490406829504854 15
   - 0.1490406829504854 c(b7d8d9d7-ab72-4c9e-88a5-c677918d75b1,39b6d253-aa2e-4247-82f8-e157083778e9)_rl
   + 3 lambda[0] + 3 lambda[1] + 3 lambda[2] + 3 lambda[3] + 3 lambda[4]
   + 3 lambda[5] + 3 lambda[6] + 3 lambda[7] + 3 lambda[8] + 3 lambda[9]
   + 3 lambda[10] + 3 lambda[11] + 3 lambda[12] + 3 lambda[13]
   + 3 lambda[15] + 3 lambda[16] + 3 lambda[17] + 3 lambda[18]
   + 3 lambda[19] + 3 lambda[20] + 3 lambda[21] + 3 lambda[22]
   + 3 lambda[23] + 3 lambda[24] + 3 lambda[25] + 3 lambda[26]
   + 3 lambda[27] + 3 lambda[28] + 1.273676784209246 lambda[29]
   <= -60.38619672046186
 z14: - 0.1895581236437384 9 + 0.1895581236437384 23
   - 0.1895581236437384 c(9b671984-58a9-4850-b4a8-9adc4e6ee3eb,48bbd4ec-cccb-4c88-9f2a-61685fd0d208)_ru
   + 3 lambda[0] + 3 lambda[1] + 3 lambda[2] + 3 lambda[3] + 3 lambda[4]
   + 3 lambda[5] + 3 lambda[6] + 3 lambda[7] + 3 lambda[8] + 3 lambda[9]
   + 3 lambda[10] + 3 lambda[11] + 3 lambda[12] + 3 lambda[13]
   + 3 lambda[14] + 3 lambda[16] + 3 lambda[17] + 3 lambda[18]
   + 3 lambda[19] + 3 lambda[20] + 3 lambda[21] + 3 lambda[22]
   + 3 lambda[23] + 3 lambda[24] + 3 lambda[25] + 3 lambda[26]
   + 3 lambda[27] + 3 lambda[28] + 1.451475738046454 lambda[29]
   <= 60.7306825455792
 z15: 0.1895581236437384 9 - 0.1895581236437384 23
   - 0.1895581236437384 c(9b671984-58a9-4850-b4a8-9adc4e6ee3eb,48bbd4ec-cccb-4c88-9f2a-61685fd0d208)_rl
   + 3 lambda[0] + 3 lambda[1] + 3 lambda[2] + 3 lambda[3] + 3 lambda[4]
   + 3 lambda[5] + 3 lambda[6] + 3 lambda[7] + 3 lambda[8] + 3 lambda[9]
   + 3 lambda[10] + 3 lambda[11] + 3 lambda[12] + 3 lambda[13]
   + 3 lambda[14] + 3 lambda[15] + 3 lambda[17] + 3 lambda[18]
   + 3 lambda[19] + 3 lambda[20] + 3 lambda[21] + 3 lambda[22]
   + 3 lambda[23] + 3 lambda[24] + 3 lambda[25] + 3 lambda[26]
   + 3 lambda[27] + 3 lambda[28] + 3 lambda[29] <= -60.63227913243327
 z16: - 0.1452668034774194 9 + 0.1452668034774194 24
   - 0.1452668034774194 c(6f60b030-39db-44b0-90c2-614ad4d0ca05,bef00eed-7111-4da2-a9f8-4297beb40ff7)_ru
   + 3 lambda[0] + 3 lambda[1] + 3 lambda[2] + 3 lambda[3] + 3 lambda[4]
   + 3 lambda[5] + 3 lambda[6] + 3 lambda[7] + 3 lambda[8] + 3 lambda[9]
   + 3 lambda[10] + 3 lambda[11] + 3 lambda[12] + 3 lambda[13]
   + 3 lambda[14] + 3 lambda[15] + 3 lambda[16] + 3 lambda[18]
   + 3 lambda[19] + 3 lambda[20] + 3 lambda[21] + 3 lambda[22]
   + 3 lambda[23] + 3 lambda[24] + 3 lambda[25] + 3 lambda[26]
   + 3 lambda[27] + 3 lambda[28] + 1.248632328269607 lambda[29]
   <= 66.87576364669771
 z17: 0.1452668034774194 9 - 0.1452668034774194 24
   - 0.1452668034774194 c(6f60b030-39db-44b0-90c2-614ad4d0ca05,bef00eed-7111-4da2-a9f8-4297beb40ff7)_rl
   + 3 lambda[0] + 3 lambda[1] + 3 lambda[2] + 3 lambda[3] + 3 lambda[4]
   + 3 lambda[5] + 3 lambda[6] + 3 lambda[7] + 3 lambda[8] + 3 lambda[9]
   + 3 lambda[10] + 3 lambda[11] + 3 lambda[12] + 3 lambda[13]
   + 3 lambda[14] + 3 lambda[15] + 3 lambda[16] + 3 lambda[17]
   + 3 lambda[19] + 3 lambda[20] + 3 lambda[21] + 3 lambda[22]
   + 3 lambda[23] + 3 lambda[24] + 3 lambda[25] + 3 lambda[26]
   + 3 lambda[27] + 3 lambda[28] + 3.247250693481821 lambda[29]
   <= -65.02735978589033
 z18: - 0.1439152661468747 14 + 0.1439152661468747 15
   - 0.1439152661468747 c(b88699eb-2b7d-49d5-ab6b-38eced322e51,39b6d253-aa2e-4247-82f8-e157083778e9)_ru
   + 3 lambda[0] + 3 lambda[1] + 3 lambda[2] + 3 lambda[3] + 3 lambda[4]
   + 3 lambda[5] + 3 lambda[6] + 3 lambda[7] + 3 lambda[8] + 3 lambda[9]
   + 3 lambda[10] + 3 lambda[11] + 3 lambda[12] + 3 lambda[13]
   + 3 lambda[14] + 3 lambda[15] + 3 lambda[16] + 3 lambda[17]
   + 3 lambda[18] + 3 lambda[20] + 3 lambda[21] + 3 lambda[22]
   + 3 lambda[23] + 3 lambda[24] + 3 lambda[25] + 3 lambda[26]
   + 3 lambda[27] + 3 lambda[28] + 1.245349441205272 lambda[29]
   <= 63.75288249823947
 z19: 0.1439152661468747 14 - 0.1439152661468747 15
   - 0.1439152661468747 c(b88699eb-2b7d-49d5-ab6b-38eced322e51,39b6d253-aa2e-4247-82f8-e157083778e9)_rl
   + 3 lambda[0] + 3 lambda[1] + 3 lambda[2] + 3 lambda[3] + 3 lambda[4]
   + 3 lambda[5] + 3 lambda[6] + 3 lambda[7] + 3 lambda[8] + 3 lambda[9]
   + 3 lambda[10] + 3 lambda[11] + 3 lambda[12] + 3 lambda[13]
   + 3 lambda[14] + 3 lambda[15] + 3 lambda[16] + 3 lambda[17]
   + 3 lambda[18] + 3 lambda[19] + 3 lambda[21] + 3 lambda[22]
   + 3 lambda[23] + 3 lambda[24] + 3 lambda[25] + 3 lambda[26]
   + 3 lambda[27] + 3 lambda[28] + 1.245349441205272 lambda[29]
   <= -62.53679849929838
 z20: 0.1429420129886639 5 - 0.1429420129886639 7
   - 0.1429420129886639 c(f335e87e-d158-4c98-99db-a19c682b4475,830c4736-bd2b-4005-98f5-d47cfa5fa749)_ru
   + 3 lambda[0] + 3 lambda[1] + 3 lambda[2] + 3 lambda[3] + 3 lambda[4]
   + 3 lambda[5] + 3 lambda[6] + 3 lambda[7] + 3 lambda[8] + 3 lambda[9]
   + 3 lambda[10] + 3 lambda[11] + 3 lambda[12] + 3 lambda[13]
   + 3 lambda[14] + 3 lambda[15] + 3 lambda[16] + 3 lambda[17]
   + 3 lambda[18] + 3 lambda[19] + 3 lambda[20] + 3 lambda[22]
   + 3 lambda[23] + 3 lambda[24] + 3 lambda[25] + 3 lambda[26]
   + 3 lambda[27] + 3 lambda[28] + 3.247251074329623 lambda[29]
   <= 74.06998223166184
 z21: - 0.1429420129886639 5 + 0.1429420129886639 7
   - 0.1429420129886639 c(f335e87e-d158-4c98-99db-a19c682b4475,830c4736-bd2b-4005-98f5-d47cfa5fa749)_rl
   + 3 lambda[0] + 3 lambda[1] + 3 lambda[2] + 3 lambda[3] + 3 lambda[4]
   + 3 lambda[5] + 3 lambda[6] + 3 lambda[7] + 3 lambda[8] + 3 lambda[9]
   + 3 lambda[10] + 3 lambda[11] + 3 lambda[12] + 3 lambda[13]
   + 3 lambda[14] + 3 lambda[15] + 3 lambda[16] + 3 lambda[17]
   + 3 lambda[18] + 3 lambda[19] + 3 lambda[20] + 3 lambda[21]
   + 3 lambda[23] + 3 lambda[24] + 3 lambda[25] + 3 lambda[26]
   + 3 lambda[27] + 3 lambda[28] + 1.233548149219794 lambda[29]
   <= -71.20891922358659
 z22: - 0.129283055997011 9 + 0.129283055997011 16
   - 0.129283055997011 c(9269351c-682f-45ec-90f8-148862e9dd82,4d9c7c74-ee92-44c6-86d0-84107827541f)_ru
   + 3 lambda[0] + 3 lambda[1] + 3 lambda[2] + 3 lambda[3] + 3 lambda[4]
   + 3 lambda[5] + 3 lambda[6] + 3 lambda[7] + 3 lambda[8] + 3 lambda[9]
   + 3 lambda[10] + 3 lambda[11] + 3 lambda[12] + 3 lambda[13]
   + 3 lambda[14] + 3 lambda[15] + 3 lambda[16] + 3 lambda[17]
   + 3 lambda[18] + 3 lambda[19] + 3 lambda[20] + 3 lambda[21]
   + 3 lambda[22] + 3 lambda[24] + 3 lambda[25] + 3 lambda[26]
   + 3 lambda[27] + 3 lambda[28] + 3.247253758715812 lambda[29]
   <= 79.87776179926703
 z23: 0.129283055997011 9 - 0.129283055997011 16
   - 0.129283055997011 c(9269351c-682f-45ec-90f8-148862e9dd82,4d9c7c74-ee92-44c6-86d0-84107827541f)_rl
   + 3 lambda[0] + 3 lambda[1] + 3 lambda[2] + 3 lambda[3] + 3 lambda[4]
   + 3 lambda[5] + 3 lambda[6] + 3 lambda[7] + 3 lambda[8] + 3 lambda[9]
   + 3 lambda[10] + 3 lambda[11] + 3 lambda[12] + 3 lambda[13]
   + 3 lambda[14] + 3 lambda[15] + 3 lambda[16] + 3 lambda[17]
   + 3 lambda[18] + 3 lambda[19] + 3 lambda[20] + 3 lambda[21]
   + 3 lambda[22] + 3 lambda[23] + 3 lambda[25] + 3 lambda[26]
   + 3 lambda[27] + 3 lambda[28] + 1.165121994966374 lambda[29]
   <= -74.55976793235799
 z24: - 0.1413226597567359 9 + 0.1413226597567359 14
   - 0.1413226597567359 c(1a3a36c7-a000-4e50-87ed-8a21ded3e5f0,435450e8-1d68-44f3-9ed0-bce054a18ab2)_ru
   + 3 lambda[0] + 3 lambda[1] + 3 lambda[2] + 3 lambda[3] + 3 lambda[4]
   + 3 lambda[5] + 3 lambda[6] + 3 lambda[7] + 3 lambda[8] + 3 lambda[9]
   + 3 lambda[10] + 3 lambda[11] + 3 lambda[12] + 3 lambda[13]
   + 3 lambda[14] + 3 lambda[15] + 3 lambda[16] + 3 lambda[17]
   + 3 lambda[18] + 3 lambda[19] + 3 lambda[20] + 3 lambda[21]
   + 3 lambda[22] + 3 lambda[23] + 3 lambda[24] + 3 lambda[26]
   + 3 lambda[27] + 3 lambda[28] + 3 lambda[29] <= 74.25052389410676
 z25: 0.1413226597567359 9 - 0.1413226597567359 14
   - 0.1413226597567359 c(1a3a36c7-a000-4e50-87ed-8a21ded3e5f0,435450e8-1d68-44f3-9ed0-bce054a18ab2)_rl
   + 3 lambda[0] + 3 lambda[1] + 3 lambda[2] + 3 lambda[3] + 3 lambda[4]
   + 3 lambda[5] + 3 lambda[6] + 3 lambda[7] + 3 lambda[8] + 3 lambda[9]
   + 3 lambda[10] + 3 lambda[11] + 3 lambda[12] + 3 lambda[13]
   + 3 lambda[14] + 3 lambda[15] + 3 lambda[16] + 3 lambda[17]
   + 3 lambda[18] + 3 lambda[19] + 3 lambda[20] + 3 lambda[21]
   + 3 lambda[22] + 3 lambda[23] + 3 lambda[24] + 3 lambda[25]
   + 3 lambda[27] + 3 lambda[28] + 3 lambda[29] <= -64.91780156002753
 z26: 0.1861796885387738 15 - 0.1861796885387738 23
   - 0.1861796885387738 c(b9e325bf-f0e5-43f6-80f7-cff0ff21ae9b,39b6d253-aa2e-4247-82f8-e157083778e9)_ru
   + 3 lambda[0] + 3 lambda[1] + 3 lambda[2] + 3 lambda[3] + 3 lambda[4]
   + 3 lambda[5] + 3 lambda[6] + 3 lambda[7] + 3 lambda[8] + 3 lambda[9]
   + 3 lambda[10] + 3 lambda[11] + 3 lambda[12] + 3 lambda[13]
   + 3 lambda[14] + 3 lambda[15] + 3 lambda[16] + 3 lambda[17]
   + 3 lambda[18] + 3 lambda[19] + 3 lambda[20] + 3 lambda[21]
   + 3 lambda[22] + 3 lambda[23] + 3 lambda[24] + 3 lambda[25]
   + 3 lambda[26] + 3 lambda[28] + 1.443624899897248 lambda[29]
   <= 48.48561684928941
 z27: - 0.1861796885387738 15 + 0.1861796885387738 23
   - 0.1861796885387738 c(b9e325bf-f0e5-43f6-80f7-cff0ff21ae9b,39b6d253-aa2e-4247-82f8-e157083778e9)_rl
   + 3 lambda[0] + 3 lambda[1] + 3 lambda[2] + 3 lambda[3] + 3 lambda[4]
   + 3 lambda[5] + 3 lambda[6] + 3 lambda[7] + 3 lambda[8] + 3 lambda[9]
   + 3 lambda[10] + 3 lambda[11] + 3 lambda[12] + 3 lambda[13]
   + 3 lambda[14] + 3 lambda[15] + 3 lambda[16] + 3 lambda[17]
   + 3 lambda[18] + 3 lambda[19] + 3 lambda[20] + 3 lambda[21]
   + 3 lambda[22] + 3 lambda[23] + 3 lambda[24] + 3 lambda[25]
   + 3 lambda[26] + 3 lambda[27] + 3.247245670004088 lambda[29]
   <= -48.34039669222917
 cc: 0.0378482591966636 lambda[0] + 0.730995439756609 lambda[1]
   + 0.730995439756609 lambda[2] + 0.730995439756609 lambda[3]
   + 0.730995439756609 lambda[4] + 0.730995439756609 lambda[5]
   + 0.730995439756609 lambda[6] + 0.730995439756609 lambda[7]
   + 0.730995439756609 lambda[8] + 0.730995439756609 lambda[9]
   + 0.730995439756609 lambda[10] + 0.730995439756609 lambda[11]
   + 0.730995439756609 lambda[12] + 0.730995439756609 lambda[13]
   + 0.730995439756609 lambda[14] + 0.730995439756609 lambda[15]
   + 0.730995439756609 lambda[16] + 0.730995439756609 lambda[17]
   + 0.730995439756609 lambda[18] + 0.730995439756609 lambda[19]
   + 0.730995439756609 lambda[20] + 0.730995439756609 lambda[21]
   + 0.730995439756609 lambda[22] + 0.730995439756609 lambda[23]
   + 0.730995439756609 lambda[24] + 0.730995439756609 lambda[25]
   + 0.730995439756609 lambda[26] + 0.730995439756609 lambda[27]
   + 0.730995439756609 lambda[28] + 1.519315960962254 lambda[29]
   <= 0.2231435513142097
 x0: 0 = 0
 sum_lam: lambda[0] + lambda[1] + lambda[2] + lambda[3] + lambda[4]
   + lambda[5] + lambda[6] + lambda[7] + lambda[8] + lambda[9] + lambda[10]
   + lambda[11] + lambda[12] + lambda[13] + lambda[14] + lambda[15]
   + lambda[16] + lambda[17] + lambda[18] + lambda[19] + lambda[20]
   + lambda[21] + lambda[22] + lambda[23] + lambda[24] + lambda[25]
   + lambda[26] + lambda[27] + lambda[28] + lambda[29] = 1
 R37: 0.0378482591966636 lambda[0] + 0.730995439756609 lambda[1]
   + 0.730995439756609 lambda[2] + 0.730995439756609 lambda[3]
   + 0.730995439756609 lambda[4] + 0.730995439756609 lambda[5]
   + 0.730995439756609 lambda[6] + 0.730995439756609 lambda[7]
   + 0.730995439756609 lambda[8] + 0.730995439756609 lambda[9]
   + 0.730995439756609 lambda[10] + 0.730995439756609 lambda[11]
   + 0.730995439756609 lambda[12] + 0.730995439756609 lambda[13]
   + 0.730995439756609 lambda[14] + 0.730995439756609 lambda[15]
   + 0.730995439756609 lambda[16] + 0.730995439756609 lambda[17]
   + 0.730995439756609 lambda[18] + 0.730995439756609 lambda[19]
   + 0.730995439756609 lambda[20] + 0.730995439756609 lambda[21]
   + 0.730995439756609 lambda[22] + 0.730995439756609 lambda[23]
   + 0.730995439756609 lambda[24] + 0.730995439756609 lambda[25]
   + 0.730995439756609 lambda[26] + 0.730995439756609 lambda[27]
   + 0.730995439756609 lambda[28] + 1.519315960962254 lambda[29] - phi[0]
   = 0
Bounds
End
